491,216
641,326
795,369
746,-8
751,-38
491,216
201,406
769,420
1051,526
1155,481
1184,485
1162,651
630,731
334,229
532,112
737,51
977,110
787,512
681,946
769,420
892,115
641,326
439,582
609,354
470,115
